clingo version 5.4.0
Reading from arteries_classifier.lp ...
Solving...
Answer: 1
artery(0,inf_mesenteric)
Optimization: -3
Answer: 2
artery(0,inf_mesenteric) artery(26,lumbarR4)
Optimization: -5
Answer: 3
artery(0,inf_mesenteric) artery(26,lumbarR4) artery(28,dorsal_pancreatic)
Optimization: -6
Answer: 4
artery(0,inf_mesenteric) artery(37,lumbarR1) artery(26,lumbarR4)
Optimization: -7
Answer: 5
artery(0,celiac_trunk) artery(38,renalL) artery(39,lumbarL1)
Optimization: -11
Answer: 6
artery(0,celiac_trunk) artery(1,sup_mesenteric) artery(38,renalL) artery(33,renalR) artery(9,renalR_mysterious) artery(14,inf_mesenteric) artery(23,lumbarL3) artery(2,gastricL) artery(3,splenic) artery(11,hepatic) artery(4,dorsal_pancreatic)
Optimization: -45
Answer: 7
artery(1,celiac_trunk) artery(14,sup_mesenteric) artery(38,renalL) artery(33,renalR) artery(39,renalL_mysterious) artery(9,renalR_mysterious) artery(23,lumbarL2) artery(26,lumbarR2) artery(10,gastricL) artery(2,splenic) artery(12,hepatic) artery(3,dorsal_pancreatic)
Optimization: -47
Answer: 8
artery(0,celiac_trunk) artery(1,sup_mesenteric) artery(9,renalR) artery(31,renalL_mysterious) artery(14,inf_mesenteric) artery(32,lumbarL1) artery(36,lumbarR1) artery(26,lumbarR3) artery(23,lumbarL3) artery(10,hepatic) artery(2,dorsal_pancreatic)
Optimization: -49
Answer: 9
artery(0,celiac_trunk) artery(1,sup_mesenteric) artery(9,renalR) artery(31,renalL_mysterious) artery(14,inf_mesenteric) artery(32,lumbarL1) artery(36,lumbarR1) artery(26,lumbarR3) artery(23,lumbarL3) artery(4,gastricL) artery(10,hepatic) artery(2,dorsal_pancreatic)
Optimization: -50
Answer: 10
artery(0,celiac_trunk) artery(1,sup_mesenteric) artery(32,renalL) artery(9,renalR) artery(14,inf_mesenteric) artery(31,lumbarL1) artery(36,lumbarR1) artery(23,lumbarL2) artery(26,lumbarR2) artery(2,splenic) artery(3,dorsal_pancreatic)
Optimization: -52
Answer: 11
artery(0,celiac_trunk) artery(1,sup_mesenteric) artery(32,renalL) artery(9,renalR) artery(44,renalL_mysterious) artery(14,inf_mesenteric) artery(31,lumbarL1) artery(36,lumbarR1) artery(23,lumbarL2) artery(26,lumbarR2) artery(2,splenic) artery(3,dorsal_pancreatic)
Optimization: -56
Answer: 12
artery(0,celiac_trunk) artery(1,sup_mesenteric) artery(32,renalL) artery(9,renalR) artery(44,renalL_mysterious) artery(14,inf_mesenteric) artery(31,lumbarL1) artery(36,lumbarR1) artery(23,lumbarL2) artery(26,lumbarR2) artery(5,gastricL) artery(2,splenic) artery(3,dorsal_pancreatic)
Optimization: -57
Answer: 13
artery(0,celiac_trunk) artery(1,sup_mesenteric) artery(32,renalL) artery(33,renalR) artery(44,renalL_mysterious) artery(14,inf_mesenteric) artery(31,lumbarL1) artery(36,lumbarR1) artery(23,lumbarL2) artery(26,lumbarR2) artery(5,gastricL) artery(2,splenic) artery(3,dorsal_pancreatic)
Optimization: -58
Answer: 14
artery(0,celiac_trunk) artery(1,sup_mesenteric) artery(32,renalL) artery(9,renalR) artery(44,renalL_mysterious) artery(14,inf_mesenteric) artery(31,lumbarL1) artery(36,lumbarR1) artery(23,lumbarL2) artery(26,lumbarR2) artery(5,gastricL) artery(2,splenic) artery(10,hepatic) artery(3,dorsal_pancreatic)
Optimization: -60
Answer: 15
artery(0,celiac_trunk) artery(1,sup_mesenteric) artery(32,renalL) artery(33,renalR) artery(44,renalL_mysterious) artery(14,inf_mesenteric) artery(31,lumbarL1) artery(36,lumbarR1) artery(23,lumbarL2) artery(26,lumbarR2) artery(5,gastricL) artery(2,splenic) artery(10,hepatic) artery(3,dorsal_pancreatic)
Optimization: -61
Answer: 16
artery(0,celiac_trunk) artery(1,sup_mesenteric) artery(33,renalR) artery(39,renalL_mysterious) artery(9,renalR_mysterious) artery(14,inf_mesenteric) artery(32,lumbarL1) artery(36,lumbarR1) artery(26,lumbarR3) artery(23,lumbarL3) artery(3,gastricL) artery(2,splenic) artery(10,hepatic) artery(11,dorsal_pancreatic)
Optimization: -62
Answer: 17
artery(0,celiac_trunk) artery(1,sup_mesenteric) artery(38,renalL) artery(33,renalR) artery(39,renalL_mysterious) artery(14,inf_mesenteric) artery(31,lumbarL1) artery(36,lumbarR1) artery(23,lumbarL2) artery(26,lumbarR2) artery(2,gastricL) artery(3,splenic) artery(10,hepatic) artery(28,dorsal_pancreatic)
Optimization: -65
Answer: 18
artery(0,celiac_trunk) artery(1,sup_mesenteric) artery(38,renalL) artery(33,renalR) artery(39,renalL_mysterious) artery(9,renalR_mysterious) artery(14,inf_mesenteric) artery(31,lumbarL1) artery(36,lumbarR1) artery(23,lumbarL2) artery(26,lumbarR2) artery(2,gastricL) artery(3,splenic) artery(10,hepatic) artery(28,dorsal_pancreatic)
Optimization: -70
Answer: 19
artery(0,celiac_trunk) artery(1,sup_mesenteric) artery(38,renalL) artery(33,renalR) artery(39,renalL_mysterious) artery(9,renalR_mysterious) artery(14,inf_mesenteric) artery(32,lumbarL1) artery(37,lumbarR1) artery(36,lumbarR3) artery(31,lumbarL3) artery(26,lumbarR4) artery(2,gastricL) artery(13,splenic) artery(11,hepatic) artery(3,dorsal_pancreatic)
Optimization: -80
Answer: 20
artery(0,celiac_trunk) artery(1,sup_mesenteric) artery(38,renalL) artery(33,renalR) artery(39,renalL_mysterious) artery(9,renalR_mysterious) artery(14,inf_mesenteric) artery(32,lumbarL1) artery(44,lumbarL2) artery(37,lumbarR2) artery(36,lumbarR3) artery(31,lumbarL3) artery(26,lumbarR4) artery(2,gastricL) artery(13,splenic) artery(11,hepatic) artery(3,dorsal_pancreatic)
Optimization: -91
OPTIMUM FOUND

Models       : 20
  Optimum    : yes
Optimization : -91
Calls        : 1
Time         : 64.225s (Solving: 64.19s 1st Model: 0.01s Unsat: 64.16s)
CPU Time     : 512.082s
Threads      : 8        (Winner: 7)
